Clp0006I 0  Obj 0 Primal inf 1999.9998 (2000) Dual inf 27474542 (1000000)
Clp0006I 200  Obj -22056054 Primal inf 1607781 (2000)
Clp0006I 400  Obj -16570904 Primal inf 1213365 (2000)
Clp0006I 600  Obj -11088501 Primal inf 820141 (2000)
Clp0006I 800  Obj -5600357 Primal inf 430513 (1999)
Clp0006I 1000  Obj -125400 Primal inf 66137 (2000)
Clp0006I 1200  Obj -58838 Primal inf 67976 (1994)
Clp0006I 1314  Obj -58838 Primal inf 71197 (1995)
Clp0006I 1427  Obj -58838 Primal inf 250441 (1996)
Clp0006I 1537  Obj -58838 Primal inf 265663 (1995)
Clp0006I 1656  Obj -58838 Primal inf 371312 (1993)
Clp0006I 1790  Obj -58838 Primal inf 218382 (1994)
Clp0006I 1937  Obj -58838 Primal inf 272811 (1993)
Clp0006I 2098  Obj -58838 Primal inf 277471 (1990)
Clp0006I 2252  Obj -58838 Primal inf 272147 (1990)
Clp0006I 2405  Obj -58838 Primal inf 235327 (1990)
Clp0006I 2564  Obj -58838 Primal inf 245683 (1988)
Clp0006I 2723  Obj -58838 Primal inf 262590 (1989)
Clp0006I 2857  Obj -58838 Primal inf 242595 (1986)
Clp0006I 3004  Obj -58838 Primal inf 284265 (1986)
Clp0006I 3149  Obj -58838 Primal inf 229346 (1983)
Clp0006I 3299  Obj -58838 Primal inf 180925 (1983)
Clp0006I 3461  Obj -58838 Primal inf 262306 (1985)
Clp0006I 3636  Obj -58838 Primal inf 340699 (1985)
Clp0006I 3781  Obj -58838 Primal inf 344044 (1984)
Clp0006I 3935  Obj -58838 Primal inf 264709 (1981)
Clp0006I 4078  Obj -58838 Primal inf 311100 (1982)
Clp0006I 4229  Obj -58838 Primal inf 344655 (1980)
Clp0006I 4397  Obj -58838 Primal inf 353846 (1981)
Clp0006I 4558  Obj -58838 Primal inf 272931 (1983)
Clp0006I 4729  Obj -58838 Primal inf 376599 (1981)
Clp0006I 4867  Obj -58838 Primal inf 361916 (1983)
Clp0006I 4997  Obj -58838 Primal inf 245942 (1983)
Clp0006I 5166  Obj -58838 Primal inf 314783 (1982)
Clp0006I 5336  Obj -58838 Primal inf 249792 (1981)
Clp0006I 5480  Obj -58838 Primal inf 240432 (1981)
Clp0006I 5634  Obj -58838 Primal inf 336391 (1975)
Clp0006I 5783  Obj -58838 Primal inf 386617 (1972)
Clp0006I 5931  Obj -58838 Primal inf 259971 (1973)
Clp0006I 6083  Obj -58838 Primal inf 269389 (1979)
Clp0006I 6234  Obj -58838 Primal inf 204280 (1982)
Clp0006I 6381  Obj -58838 Primal inf 194312 (1983)
Clp0006I 6544  Obj -58838 Primal inf 263687 (1983)
Clp0006I 6690  Obj -58838 Primal inf 311182 (1986)
Clp0006I 6837  Obj -58838 Primal inf 294012 (1986)
Clp0006I 6978  Obj -58838 Primal inf 381507 (1986)
Clp0006I 7111  Obj -58838 Primal inf 264117 (1985)
Clp0006I 7270  Obj -58838 Primal inf 408366 (1980)
Clp0006I 7393  Obj -58838 Primal inf 338708 (1982)
Clp0006I 7528  Obj -58838 Primal inf 372086 (1985)
Clp0006I 7665  Obj -58838 Primal inf 365498 (1986)

TIME LIMIT REACHED!
real 1m24,306s user 1m23,612s sys 0m0,592s
